c Generated map
c Size: 8 * 8, weights in range: 1 to 10, walls: True, with ratio 0.05
c dim 4 of 9
c
p sp 64 102
c graph contains 64 nodes and 102 arcs
c
a 1 9 4
a 9 1 4
a 1 2 5
a 2 1 5
a 2 10 3
a 10 2 3
a 2 3 3
a 3 2 3
a 3 11 2
a 11 3 2
a 3 4 9
a 4 3 9
a 4 12 5
a 12 4 5
a 4 5 7
a 5 4 7
a 5 13 4
a 13 5 4
a 5 6 1
a 6 5 1
a 6 14 6
a 14 6 6
a 6 7 8
a 7 6 8
a 7 15 1
a 15 7 1
a 7 8 6
a 8 7 6
a 8 16 10
a 16 8 10
a 9 17 2
a 17 9 2
a 9 10 2
a 10 9 2
a 10 18 1
a 18 10 1
a 10 11 7
a 11 10 7
a 11 19 7
a 19 11 7
a 11 12 4
a 12 11 4
a 12 20 9
a 20 12 9
a 12 13 5
a 13 12 5
a 13 21 9
a 21 13 9
a 13 14 1
a 14 13 1
a 14 22 4
a 22 14 4
a 14 15 3
a 15 14 3
a 15 23 10
a 23 15 10
a 15 16 2
a 16 15 2
a 16 24 9
a 24 16 9
a 17 25 2
a 25 17 2
a 17 18 1
a 18 17 1
a 18 26 4
a 26 18 4
a 18 19 8
a 19 18 8
a 19 27 8
a 27 19 8
a 19 20 3
a 20 19 3
a 20 28 5
a 28 20 5
a 20 21 9
a 21 20 9
a 21 29 5
a 29 21 5
a 21 22 8
a 22 21 8
a 22 30 9
a 30 22 9
a 22 23 7
a 23 22 7
a 23 31 2
a 31 23 2
a 23 24 9
a 24 23 9
a 24 32 2
a 32 24 2
a 25 33 10
a 33 25 10
a 25 26 4
a 26 25 4
a 26 34 3
a 34 26 3
a 26 27 3
a 27 26 3
a 27 35 7
a 35 27 7
a 27 28 3
a 28 27 3
a 28 36 7
a 36 28 7
a 28 29 4
a 29 28 4
a 29 37 3
a 37 29 3
a 29 30 8
a 30 29 8
a 30 38 4
a 38 30 4
a 30 31 10
a 31 30 10
a 31 39 10
a 39 31 10
a 31 32 4
a 32 31 4
a 32 40 2
a 40 32 2
a 33 41 10
a 41 33 10
a 33 34 2
a 34 33 2
a 34 42 3
a 42 34 3
a 34 35 2
a 35 34 2
a 35 43 1
a 43 35 1
a 35 36 6
a 36 35 6
a 36 44 8
a 44 36 8
a 36 37 10
a 37 36 10
a 37 45 1
a 45 37 1
a 37 38 8
a 38 37 8
a 38 46 3
a 46 38 3
a 38 39 1
a 39 38 1
a 39 47 3
a 47 39 3
a 39 40 6
a 40 39 6
a 40 48 1
a 48 40 1
a 41 42 7
a 42 41 7
a 42 50 2
a 50 42 2
a 42 43 8
a 43 42 8
a 43 51 5
a 51 43 5
a 43 44 8
a 44 43 8
a 44 52 10
a 52 44 10
a 44 45 8
a 45 44 8
a 45 46 1
a 46 45 1
a 46 54 8
a 54 46 8
a 46 47 3
a 47 46 3
a 47 55 9
a 55 47 9
a 47 48 9
a 48 47 9
a 48 56 2
a 56 48 2
a 50 58 5
a 58 50 5
a 50 51 3
a 51 50 3
a 51 59 8
a 59 51 8
a 51 52 7
a 52 51 7
a 52 60 10
a 60 52 10
a 54 55 3
a 55 54 3
a 55 63 4
a 63 55 4
a 55 56 9
a 56 55 9
a 56 64 1
a 64 56 1
a 57 58 9
a 58 57 9
a 58 59 6
a 59 58 6
a 59 60 1
a 60 59 1
a 60 61 2
a 61 60 2
a 63 64 10
a 64 63 10
